c File: flat50_3_0.col
c
c SOURCE: Joseph Culberson (joe@cs.ualberta.ca)
c DESCRIPTION: Quasi-random coloring problem
c              generated with flatness = 0
c                             probability = 0.139
c                             known coloring = 3
c                             random seed = 1502
c              Creation Date:  Tue Jun  9 12:10:53 1998
c Maximum degree = 8 Minimum degree = 1
c p edge 50 115
c cnf created by edge2cnf
p cnf 150 545
-1 -2 0
-1 -3 0
-2 -3 0
1 2 3 0
-4 -5 0
-4 -6 0
-5 -6 0
4 5 6 0
-7 -8 0
-7 -9 0
-8 -9 0
7 8 9 0
-10 -11 0
-10 -12 0
-11 -12 0
10 11 12 0
-13 -14 0
-13 -15 0
-14 -15 0
13 14 15 0
-16 -17 0
-16 -18 0
-17 -18 0
16 17 18 0
-19 -20 0
-19 -21 0
-20 -21 0
19 20 21 0
-22 -23 0
-22 -24 0
-23 -24 0
22 23 24 0
-25 -26 0
-25 -27 0
-26 -27 0
25 26 27 0
-28 -29 0
-28 -30 0
-29 -30 0
28 29 30 0
-31 -32 0
-31 -33 0
-32 -33 0
31 32 33 0
-34 -35 0
-34 -36 0
-35 -36 0
34 35 36 0
-37 -38 0
-37 -39 0
-38 -39 0
37 38 39 0
-40 -41 0
-40 -42 0
-41 -42 0
40 41 42 0
-43 -44 0
-43 -45 0
-44 -45 0
43 44 45 0
-46 -47 0
-46 -48 0
-47 -48 0
46 47 48 0
-49 -50 0
-49 -51 0
-50 -51 0
49 50 51 0
-52 -53 0
-52 -54 0
-53 -54 0
52 53 54 0
-55 -56 0
-55 -57 0
-56 -57 0
55 56 57 0
-58 -59 0
-58 -60 0
-59 -60 0
58 59 60 0
-61 -62 0
-61 -63 0
-62 -63 0
61 62 63 0
-64 -65 0
-64 -66 0
-65 -66 0
64 65 66 0
-67 -68 0
-67 -69 0
-68 -69 0
67 68 69 0
-70 -71 0
-70 -72 0
-71 -72 0
70 71 72 0
-73 -74 0
-73 -75 0
-74 -75 0
73 74 75 0
-76 -77 0
-76 -78 0
-77 -78 0
76 77 78 0
-79 -80 0
-79 -81 0
-80 -81 0
79 80 81 0
-82 -83 0
-82 -84 0
-83 -84 0
82 83 84 0
-85 -86 0
-85 -87 0
-86 -87 0
85 86 87 0
-88 -89 0
-88 -90 0
-89 -90 0
88 89 90 0
-91 -92 0
-91 -93 0
-92 -93 0
91 92 93 0
-94 -95 0
-94 -96 0
-95 -96 0
94 95 96 0
-97 -98 0
-97 -99 0
-98 -99 0
97 98 99 0
-100 -101 0
-100 -102 0
-101 -102 0
100 101 102 0
-103 -104 0
-103 -105 0
-104 -105 0
103 104 105 0
-106 -107 0
-106 -108 0
-107 -108 0
106 107 108 0
-109 -110 0
-109 -111 0
-110 -111 0
109 110 111 0
-112 -113 0
-112 -114 0
-113 -114 0
112 113 114 0
-115 -116 0
-115 -117 0
-116 -117 0
115 116 117 0
-118 -119 0
-118 -120 0
-119 -120 0
118 119 120 0
-121 -122 0
-121 -123 0
-122 -123 0
121 122 123 0
-124 -125 0
-124 -126 0
-125 -126 0
124 125 126 0
-127 -128 0
-127 -129 0
-128 -129 0
127 128 129 0
-130 -131 0
-130 -132 0
-131 -132 0
130 131 132 0
-133 -134 0
-133 -135 0
-134 -135 0
133 134 135 0
-136 -137 0
-136 -138 0
-137 -138 0
136 137 138 0
-139 -140 0
-139 -141 0
-140 -141 0
139 140 141 0
-142 -143 0
-142 -144 0
-143 -144 0
142 143 144 0
-145 -146 0
-145 -147 0
-146 -147 0
145 146 147 0
-148 -149 0
-148 -150 0
-149 -150 0
148 149 150 0
-55 -1 0
-56 -2 0
-57 -3 0
-112 -1 0
-113 -2 0
-114 -3 0
-115 -1 0
-116 -2 0
-117 -3 0
-148 -1 0
-149 -2 0
-150 -3 0
-55 -4 0
-56 -5 0
-57 -6 0
-70 -4 0
-71 -5 0
-72 -6 0
-85 -4 0
-86 -5 0
-87 -6 0
-97 -4 0
-98 -5 0
-99 -6 0
-103 -4 0
-104 -5 0
-105 -6 0
-118 -4 0
-119 -5 0
-120 -6 0
-70 -7 0
-71 -8 0
-72 -9 0
-82 -7 0
-83 -8 0
-84 -9 0
-100 -7 0
-101 -8 0
-102 -9 0
-109 -7 0
-110 -8 0
-111 -9 0
-121 -7 0
-122 -8 0
-123 -9 0
-130 -7 0
-131 -8 0
-132 -9 0
-142 -7 0
-143 -8 0
-144 -9 0
-64 -10 0
-65 -11 0
-66 -12 0
-76 -10 0
-77 -11 0
-78 -12 0
-79 -10 0
-80 -11 0
-81 -12 0
-52 -13 0
-53 -14 0
-54 -15 0
-91 -13 0
-92 -14 0
-93 -15 0
-103 -13 0
-104 -14 0
-105 -15 0
-130 -13 0
-131 -14 0
-132 -15 0
-73 -16 0
-74 -17 0
-75 -18 0
-76 -16 0
-77 -17 0
-78 -18 0
-79 -16 0
-80 -17 0
-81 -18 0
-85 -16 0
-86 -17 0
-87 -18 0
-115 -16 0
-116 -17 0
-117 -18 0
-121 -16 0
-122 -17 0
-123 -18 0
-130 -16 0
-131 -17 0
-132 -18 0
-133 -16 0
-134 -17 0
-135 -18 0
-91 -19 0
-92 -20 0
-93 -21 0
-118 -22 0
-119 -23 0
-120 -24 0
-148 -22 0
-149 -23 0
-150 -24 0
-61 -25 0
-62 -26 0
-63 -27 0
-85 -25 0
-86 -26 0
-87 -27 0
-127 -25 0
-128 -26 0
-129 -27 0
-139 -25 0
-140 -26 0
-141 -27 0
-85 -28 0
-86 -29 0
-87 -30 0
-94 -28 0
-95 -29 0
-96 -30 0
-121 -28 0
-122 -29 0
-123 -30 0
-127 -28 0
-128 -29 0
-129 -30 0
-73 -31 0
-74 -32 0
-75 -33 0
-88 -31 0
-89 -32 0
-90 -33 0
-145 -31 0
-146 -32 0
-147 -33 0
-58 -34 0
-59 -35 0
-60 -36 0
-61 -34 0
-62 -35 0
-63 -36 0
-67 -34 0
-68 -35 0
-69 -36 0
-73 -34 0
-74 -35 0
-75 -36 0
-127 -34 0
-128 -35 0
-129 -36 0
-148 -34 0
-149 -35 0
-150 -36 0
-64 -37 0
-65 -38 0
-66 -39 0
-100 -37 0
-101 -38 0
-102 -39 0
-103 -37 0
-104 -38 0
-105 -39 0
-139 -37 0
-140 -38 0
-141 -39 0
-103 -40 0
-104 -41 0
-105 -42 0
-148 -40 0
-149 -41 0
-150 -42 0
-55 -43 0
-56 -44 0
-57 -45 0
-58 -43 0
-59 -44 0
-60 -45 0
-79 -43 0
-80 -44 0
-81 -45 0
-124 -43 0
-125 -44 0
-126 -45 0
-130 -43 0
-131 -44 0
-132 -45 0
-136 -43 0
-137 -44 0
-138 -45 0
-142 -43 0
-143 -44 0
-144 -45 0
-61 -46 0
-62 -47 0
-63 -48 0
-73 -46 0
-74 -47 0
-75 -48 0
-79 -46 0
-80 -47 0
-81 -48 0
-118 -46 0
-119 -47 0
-120 -48 0
-121 -46 0
-122 -47 0
-123 -48 0
-133 -46 0
-134 -47 0
-135 -48 0
-145 -46 0
-146 -47 0
-147 -48 0
-64 -49 0
-65 -50 0
-66 -51 0
-76 -49 0
-77 -50 0
-78 -51 0
-97 -49 0
-98 -50 0
-99 -51 0
-100 -49 0
-101 -50 0
-102 -51 0
-139 -49 0
-140 -50 0
-141 -51 0
-112 -52 0
-113 -53 0
-114 -54 0
-130 -52 0
-131 -53 0
-132 -54 0
-142 -52 0
-143 -53 0
-144 -54 0
-106 -55 0
-107 -56 0
-108 -57 0
-109 -58 0
-110 -59 0
-111 -60 0
-133 -58 0
-134 -59 0
-135 -60 0
-142 -58 0
-143 -59 0
-144 -60 0
-115 -61 0
-116 -62 0
-117 -63 0
-115 -64 0
-116 -65 0
-117 -66 0
-136 -64 0
-137 -65 0
-138 -66 0
-103 -67 0
-104 -68 0
-105 -69 0
-106 -67 0
-107 -68 0
-108 -69 0
-142 -67 0
-143 -68 0
-144 -69 0
-145 -67 0
-146 -68 0
-147 -69 0
-118 -70 0
-119 -71 0
-120 -72 0
-109 -73 0
-110 -74 0
-111 -75 0
-115 -73 0
-116 -74 0
-117 -75 0
-127 -73 0
-128 -74 0
-129 -75 0
-145 -76 0
-146 -77 0
-147 -78 0
-103 -79 0
-104 -80 0
-105 -81 0
-106 -79 0
-107 -80 0
-108 -81 0
-115 -79 0
-116 -80 0
-117 -81 0
-103 -82 0
-104 -83 0
-105 -84 0
-118 -82 0
-119 -83 0
-120 -84 0
-106 -85 0
-107 -86 0
-108 -87 0
-139 -85 0
-140 -86 0
-141 -87 0
-127 -91 0
-128 -92 0
-129 -93 0
-145 -91 0
-146 -92 0
-147 -93 0
-103 -94 0
-104 -95 0
-105 -96 0
-145 -94 0
-146 -95 0
-147 -96 0
-148 -94 0
-149 -95 0
-150 -96 0
-109 -97 0
-110 -98 0
-111 -99 0
-118 -97 0
-119 -98 0
-120 -99 0
-136 -97 0
-137 -98 0
-138 -99 0
-109 -100 0
-110 -101 0
-111 -102 0
-130 -100 0
-131 -101 0
-132 -102 0
-139 -100 0
-140 -101 0
-141 -102 0
-148 -100 0
-149 -101 0
-150 -102 0
